c 163_3_checker_6cl.cnf
c
c field = 163
c formula set type = 3_checker_6cl
c
p cnf 6 30
318 
320 
322 
-317 
-314 
-326 
319 
321 
323 
-316 
-315 
-327 
318 
320 
322 
-327 
-316 
-328 
319 
321 
323 
-326 
-317 
-329 
320 
322 
326 
-319 
-316 
-328 
321 
323 
327 
-318 
-317 
-329 
234 
264 
294 
-205 
-174 
-354 
235 
265 
295 
-204 
-175 
-355 
234 
264 
294 
-355 
-204 
-384 
235 
265 
295 
-354 
-205 
-385 
264 
294 
354 
-235 
-204 
-384 
265 
295 
355 
-234 
-205 
-385 
264 
294 
354 
-385 
-234 
-414 
265 
295 
355 
-384 
-235 
-415 
294 
354 
384 
-265 
-234 
-414 
295 
355 
385 
-264 
-235 
-415 
294 
354 
384 
-415 
-264 
-444 
295 
355 
385 
-414 
-265 
-445 
354 
384 
414 
-295 
-264 
-444 
355 
385 
415 
-294 
-265 
-445 
228 
260 
292 
-197 
-164 
-356 
229 
261 
293 
-196 
-165 
-357 
228 
260 
292 
-357 
-196 
-388 
229 
261 
293 
-356 
-197 
-389 
260 
292 
356 
-229 
-196 
-388 
261 
293 
357 
-228 
-197 
-389 
296 
352 
380 
-409 
-268 
-436 
297 
353 
381 
-408 
-269 
-437 
352 
380 
408 
-297 
-268 
-436 
353 
381 
409 
-296 
-269 
-437 
